nat_inputs/AUFLIA/20170829-Rodin/smt2181837550387132826.smt2
(set-info :smt-lib-version 2.6)
(set-logic ALL)
(declare-sort Nat$ 0)
(declare-fun to_int$ (Nat$) Int)
(set-info :source |Generator: Rodin SMT Plug-in|)
(set-info :license "https://creativecommons.org/licenses/by-nc/4.0/")
(set-info :category "industrial")
(set-info :status unsat)
(declare-sort PZ 0)
(declare-sort PZZ 0)
(declare-fun MS (Int Int PZZ) Bool)
(declare-fun MS0 (Int PZ) Bool)
(declare-fun i (Int Int PZ) Bool)
(declare-fun N () PZ)
(declare-fun n () PZZ)
(declare-fun x () Int)
(declare-fun y () Int)
(assert (forall ((x42 Int)) (exists ((X PZ)) (and (MS0 x42 X) (forall ((y0 Int)) (=> (MS0 y0 X) (= y0 x42)))))))
(assert (forall ((x43 Int) (x44 Int)) (exists ((X0 PZZ)) (and (MS x43 x44 X0) (forall ((y1 Int) (y2 Int)) (=> (MS y1 y2 X0) (and (= y1 x43) (= y2 x44))))))))
(assert (! (and (forall ((x0 Int) (x1 Int)) (=> (MS x0 x1 n) (and (MS0 x0 N) (MS0 x1 N)))) (forall ((x2 Int) (x3 Int) (x4 Int)) (=> (and (MS x2 x3 n) (MS x2 x4 n)) (= x3 x4))) (forall ((x5 Int)) (=> (MS0 x5 N) (exists ((x6 Int)) (MS x5 x6 n)))) (forall ((x7 Int)) (=> (MS0 x7 N) (exists ((x8 Int)) (MS x8 x7 n)))) (forall ((x9 Int) (x10 Int) (x11 Int)) (=> (and (MS x10 x9 n) (MS x11 x9 n)) (= x10 x11)))) :named hyp1))
(assert (! (and (forall ((x12 Int) (x13 Int) (x14 PZ)) (=> (i x12 x13 x14) (and (MS0 x12 N) (MS0 x13 N) (forall ((x15 Int)) (=> (MS0 x15 x14) (MS0 x15 N)))))) (forall ((x16 Int) (x17 Int) (x18 PZ) (x19 PZ)) (=> (and (i x16 x17 x18) (i x16 x17 x19)) (forall ((x20 Int)) (= (MS0 x20 x18) (MS0 x20 x19))))) (forall ((x21 Int) (x22 Int)) (=> (and (MS0 x21 N) (MS0 x22 N)) (exists ((x23 PZ)) (i x21 x22 x23))))) :named hyp2))
(assert (! (forall ((x24 Int)) (=> (MS0 x24 N) (exists ((x25 PZ)) (and (forall ((x26 Int)) (= (MS0 x26 x25) (= x26 x24))) (i x24 x24 x25))))) :named hyp3))
(assert (! (MS0 x N) :named hyp4))
(assert (! (MS0 y N) :named hyp5))
(assert (! (not (= x y)) :named hyp6))
(assert (! (forall ((x27 Nat$)) (=> (MS0 (to_int$ x27) N) (<= 0 (to_int$ x27)))) :named hyp7))
(assert (! (forall ((a Int)) (exists ((b Int) (f PZZ)) (and (forall ((x28 Int) (x29 Int)) (=> (MS x28 x29 f) (and (MS0 x28 N) (<= a x29) (<= x29 b)))) (forall ((x30 Int) (x31 Int) (x32 Int)) (=> (and (MS x30 x31 f) (MS x30 x32 f)) (= x31 x32))) (forall ((x33 Int)) (=> (MS0 x33 N) (exists ((x34 Int)) (MS x33 x34 f)))) (forall ((x35 Int) (x36 Int) (x37 Int)) (=> (and (MS x36 x35 f) (MS x37 x35 f)) (= x36 x37)))))) :named hyp8))
(assert (! (exists ((b0 Int)) (forall ((x38 Int)) (=> (MS0 x38 N) (<= x38 b0)))) :named hyp9))
(assert (! (not (forall ((x39 Int)) (not (MS0 x39 N)))) :named hyp10))
(assert (! (not (exists ((x40 PZ) (x41 Int)) (and (MS x41 y n) (i x x41 x40)))) :named goal))
(check-sat)
(exit)
